HUN,8,6,76
2,32,5,53,1,54,3,18,0,93,4,8
3,24,4,66,2,48,0,36,1,2,5,75
4,50,5,34,2,11,0,85,1,23,3,92
2,64,3,42,4,28,1,5,5,98,0,48
3,9,5,87,4,100,2,85,0,68,1,85
5,83,0,58,3,28,4,18,2,59,1,100
5,64,4,26,1,96,2,22,3,44,0,20
0,94,5,8,1,12,3,69,4,43,2,39
